data;

param:
I: Value :=
0    8
1    28
2    57
3    69
4    50
5    40
6    76
7    53
8    39
9    21
10    44
11    53
12    20
13    87
14    92
15    9
16    25
17    32
18    43
19    83
20    11
21    63
22    45
23    90
24    81
25    62
26    81
27    17
28    68
29    45
30    70
31    77
32    74
33    80
34    98
35    76
36    72
37    74
38    29
39    11
40    47
41    25
42    64
43    67
44    13
45    56
46    28;

param TargetSum := 1834;
